
Gurobi 11.0.0 (linux64) logging started Thu Dec  5 15:05:58 2024

Set parameter LogFile to value "gurobi.log"
Set parameter InfUnbdInfo to value 1
Gurobi Optimizer version 11.0.0 build v11.0.0rc2 (linux64 - "Ubuntu 22.04.4 LTS")

CPU model: AMD EPYC 7V13 64-Core Processor, instruction set [SSE2|AVX|AVX2]
Thread count: 128 physical cores, 128 logical processors, using up to 32 threads

Optimize a model with 43 rows, 165 columns and 124 nonzeros
Model fingerprint: 0x490ed78f
Model has 115 quadratic constraints
Model has 12 general constraints
Variable types: 37 continuous, 128 integer (0 binary)
Coefficient statistics:
  Matrix range     [1e+00, 2e+01]
  QMatrix range    [1e+00, 2e+02]
  QLMatrix range   [1e+00, 2e+02]
  Objective range  [1e+00, 1e+00]
  Bounds range     [1e+00, 2e+06]
  RHS range        [1e+00, 2e+06]
  QRHS range       [2e+02, 9e+03]
Using branch priorities (all 0).
Presolve added 92 rows and 46 columns
Presolve time: 0.01s
Presolved: 409 rows, 349 columns, 1184 nonzeros
Presolved model has 94 SOS constraint(s)
Presolved model has 31 bilinear constraint(s)
Warning: Model contains variables with very large bounds participating
         in product terms.
         Presolve was not able to compute smaller bounds for these variables.
         Consider bounding these variables or reformulating the model.


Solving non-convex MIQCP

Variable types: 86 continuous, 263 integer (112 binary)

Root relaxation: objective 8.878948e+01, 183 iterations, 0.00 seconds (0.00 work units)

    Nodes    |    Current Node    |     Objective Bounds      |     Work
 Expl Unexpl |  Obj  Depth IntInf | Incumbent    BestBd   Gap | It/Node Time

     0     0   88.78948    0  104          -   88.78948      -     -    0s
     0     0   88.79037    0   98          -   88.79037      -     -    0s
H    0     0                    370987.06250   88.79037   100%     -    0s
H    0     0                    191514.56250   88.79037   100%     -    0s
     0     0  167.02522    0  134 191514.563  167.02522   100%     -    0s
H    0     0                    189850.56250  167.24940   100%     -    0s
H    0     0                    87998.062500  167.24940   100%     -    0s
     0     0  192.28400    0  137 87998.0625  192.28400   100%     -    0s
     0     0  192.28400    0   74 87998.0625  192.28400   100%     -    0s
H    0     0                    66210.062500  192.28400   100%     -    0s
H    0     0                    57850.187500  192.28400   100%     -    0s
     0     0  192.28400    0   89 57850.1875  192.28400   100%     -    1s
H    0     0                    30625.609341  192.28400  99.4%     -    1s
     0     0  195.80861    0   94 30625.6093  195.80861  99.4%     -    1s
     0     0  330.07573    0   89 30625.6093  330.07573  98.9%     -    1s
     0     0  772.73485    0   89 30625.6093  772.73485  97.5%     -    1s
     0     0 3139.96599    0   87 30625.6093 3139.96599  89.7%     -    1s
     0     0 3146.28112    0   88 30625.6093 3146.28112  89.7%     -    1s
     0     0 3221.71840    0   86 30625.6093 3221.71840  89.5%     -    1s
     0     0 3262.15376    0   88 30625.6093 3262.15376  89.3%     -    1s
     0     0 3483.16714    0   93 30625.6093 3483.16714  88.6%     -    1s
H    0     0                    26952.792730 3801.99930  85.9%     -    1s
     0     0 3863.83823    0   89 26952.7927 3863.83823  85.7%     -    1s
     0     0 4478.23284    0   92 26952.7927 4478.23284  83.4%     -    2s
     0     0 5135.49562    0   91 26952.7927 5135.49562  80.9%     -    2s
H    0     0                    25958.965576 5135.49562  80.2%     -    2s
     0     0 6713.31660    0   62 25958.9656 6713.31660  74.1%     -    2s
     0     0 7275.94407    0   62 25958.9656 7275.94407  72.0%     -    2s
     0     0 8183.22759    0   62 25958.9656 8183.22759  68.5%     -    2s
     0     0 8712.83176    0   62 25958.9656 8712.83176  66.4%     -    2s
     0     0 9521.39948    0   62 25958.9656 9521.39948  63.3%     -    2s
     0     0 10076.5932    0   63 25958.9656 10076.5932  61.2%     -    2s
     0     0 10666.9306    0   63 25958.9656 10666.9306  58.9%     -    2s
     0     0 11164.4034    0   63 25958.9656 11164.4034  57.0%     -    2s
     0     0 11568.6498    0   95 25958.9656 11568.6498  55.4%     -    3s
     0     0 11947.3594    0   95 25958.9656 11947.3594  54.0%     -    3s
     0     0 12595.0420    0   91 25958.9656 12595.0420  51.5%     -    3s
     0     0 13615.9643    0   96 25958.9656 13615.9643  47.5%     -    3s
     0     0 14652.9879    0   88 25958.9656 14652.9879  43.6%     -    3s
     0     2 14652.9879    0   88 25958.9656 14652.9879  43.6%     -    3s
*   55    32               6    25958.964987 14652.9879  43.6%  20.1    3s

Cutting planes:
  Gomory: 1
  Implied bound: 37
  MIR: 19
  Flow cover: 1
  RLT: 10
  Relax-and-lift: 22

Explored 762 nodes (6794 simplex iterations) in 4.31 seconds (0.17 work units)
Thread count was 32 (of 128 available processors)

Solution count 10: 25959 25959 26952.8 ... 370987

Optimal solution found (tolerance 1.00e-04)
Warning: max constraint violation (8.2395e-04) exceeds tolerance
Warning: max general constraint violation (8.2395e-04) exceeds tolerance
Best objective 2.595896498672e+04, best bound 2.595896498672e+04, gap 0.0000%
